p cnf 65 1125
1 6 11 16 21 26 31 36 41 46 51 56 61 0
2 7 12 17 22 27 32 37 42 47 52 57 62 0
3 8 13 18 23 28 33 38 43 48 53 58 63 0
4 9 14 19 24 29 34 39 44 49 54 59 64 0
5 10 15 20 25 30 35 40 45 50 55 60 65 0
-1 -12 0
-1 -13 0
-1 -14 0
-1 -15 0
-2 -13 0
-2 -14 0
-2 -15 0
-3 -14 0
-3 -15 0
-4 -15 0
-1 -27 0
-1 -28 0
-1 -29 0
-1 -30 0
-2 -28 0
-2 -29 0
-2 -30 0
-3 -29 0
-3 -30 0
-4 -30 0
-1 -42 0
-1 -43 0
-1 -44 0
-1 -45 0
-2 -43 0
-2 -44 0
-2 -45 0
-3 -44 0
-3 -45 0
-4 -45 0
-6 -22 0
-6 -23 0
-6 -24 0
-6 -25 0
-7 -23 0
-7 -24 0
-7 -25 0
-8 -24 0
-8 -25 0
-9 -25 0
-6 -32 0
-6 -33 0
-6 -34 0
-6 -35 0
-7 -33 0
-7 -34 0
-7 -35 0
-8 -34 0
-8 -35 0
-9 -35 0
-6 -47 0
-6 -48 0
-6 -49 0
-6 -50 0
-7 -48 0
-7 -49 0
-7 -50 0
-8 -49 0
-8 -50 0
-9 -50 0
-11 -2 0
-11 -3 0
-11 -4 0
-11 -5 0
-12 -3 0
-12 -4 0
-12 -5 0
-13 -4 0
-13 -5 0
-14 -5 0
-11 -17 0
-11 -18 0
-11 -19 0
-11 -20 0
-12 -18 0
-12 -19 0
-12 -20 0
-13 -19 0
-13 -20 0
-14 -20 0
-11 -22 0
-11 -23 0
-11 -24 0
-11 -25 0
-12 -23 0
-12 -24 0
-12 -25 0
-13 -24 0
-13 -25 0
-14 -25 0
-11 -37 0
-11 -38 0
-11 -39 0
-11 -40 0
-12 -38 0
-12 -39 0
-12 -40 0
-13 -39 0
-13 -40 0
-14 -40 0
-11 -57 0
-11 -58 0
-11 -59 0
-11 -60 0
-12 -58 0
-12 -59 0
-12 -60 0
-13 -59 0
-13 -60 0
-14 -60 0
-16 -12 0
-16 -13 0
-16 -14 0
-16 -15 0
-17 -13 0
-17 -14 0
-17 -15 0
-18 -14 0
-18 -15 0
-19 -15 0
-16 -27 0
-16 -28 0
-16 -29 0
-16 -30 0
-17 -28 0
-17 -29 0
-17 -30 0
-18 -29 0
-18 -30 0
-19 -30 0
-16 -52 0
-16 -53 0
-16 -54 0
-16 -55 0
-17 -53 0
-17 -54 0
-17 -55 0
-18 -54 0
-18 -55 0
-19 -55 0
-16 -62 0
-16 -63 0
-16 -64 0
-16 -65 0
-17 -63 0
-17 -64 0
-17 -65 0
-18 -64 0
-18 -65 0
-19 -65 0
-21 -7 0
-21 -8 0
-21 -9 0
-21 -10 0
-22 -8 0
-22 -9 0
-22 -10 0
-23 -9 0
-23 -10 0
-24 -10 0
-21 -12 0
-21 -13 0
-21 -14 0
-21 -15 0
-22 -13 0
-22 -14 0
-22 -15 0
-23 -14 0
-23 -15 0
-24 -15 0
-21 -27 0
-21 -28 0
-21 -29 0
-21 -30 0
-22 -28 0
-22 -29 0
-22 -30 0
-23 -29 0
-23 -30 0
-24 -30 0
-21 -37 0
-21 -38 0
-21 -39 0
-21 -40 0
-22 -38 0
-22 -39 0
-22 -40 0
-23 -39 0
-23 -40 0
-24 -40 0
-21 -52 0
-21 -53 0
-21 -54 0
-21 -55 0
-22 -53 0
-22 -54 0
-22 -55 0
-23 -54 0
-23 -55 0
-24 -55 0
-26 -2 0
-26 -3 0
-26 -4 0
-26 -5 0
-27 -3 0
-27 -4 0
-27 -5 0
-28 -4 0
-28 -5 0
-29 -5 0
-26 -17 0
-26 -18 0
-26 -19 0
-26 -20 0
-27 -18 0
-27 -19 0
-27 -20 0
-28 -19 0
-28 -20 0
-29 -20 0
-26 -22 0
-26 -23 0
-26 -24 0
-26 -25 0
-27 -23 0
-27 -24 0
-27 -25 0
-28 -24 0
-28 -25 0
-29 -25 0
-26 -32 0
-26 -33 0
-26 -34 0
-26 -35 0
-27 -33 0
-27 -34 0
-27 -35 0
-28 -34 0
-28 -35 0
-29 -35 0
-26 -37 0
-26 -38 0
-26 -39 0
-26 -40 0
-27 -38 0
-27 -39 0
-27 -40 0
-28 -39 0
-28 -40 0
-29 -40 0
-26 -47 0
-26 -48 0
-26 -49 0
-26 -50 0
-27 -48 0
-27 -49 0
-27 -50 0
-28 -49 0
-28 -50 0
-29 -50 0
-26 -57 0
-26 -58 0
-26 -59 0
-26 -60 0
-27 -58 0
-27 -59 0
-27 -60 0
-28 -59 0
-28 -60 0
-29 -60 0
-31 -7 0
-31 -8 0
-31 -9 0
-31 -10 0
-32 -8 0
-32 -9 0
-32 -10 0
-33 -9 0
-33 -10 0
-34 -10 0
-31 -27 0
-31 -28 0
-31 -29 0
-31 -30 0
-32 -28 0
-32 -29 0
-32 -30 0
-33 -29 0
-33 -30 0
-34 -30 0
-31 -37 0
-31 -38 0
-31 -39 0
-31 -40 0
-32 -38 0
-32 -39 0
-32 -40 0
-33 -39 0
-33 -40 0
-34 -40 0
-31 -47 0
-31 -48 0
-31 -49 0
-31 -50 0
-32 -48 0
-32 -49 0
-32 -50 0
-33 -49 0
-33 -50 0
-34 -50 0
-31 -52 0
-31 -53 0
-31 -54 0
-31 -55 0
-32 -53 0
-32 -54 0
-32 -55 0
-33 -54 0
-33 -55 0
-34 -55 0
-31 -57 0
-31 -58 0
-31 -59 0
-31 -60 0
-32 -58 0
-32 -59 0
-32 -60 0
-33 -59 0
-33 -60 0
-34 -60 0
-36 -12 0
-36 -13 0
-36 -14 0
-36 -15 0
-37 -13 0
-37 -14 0
-37 -15 0
-38 -14 0
-38 -15 0
-39 -15 0
-36 -22 0
-36 -23 0
-36 -24 0
-36 -25 0
-37 -23 0
-37 -24 0
-37 -25 0
-38 -24 0
-38 -25 0
-39 -25 0
-36 -27 0
-36 -28 0
-36 -29 0
-36 -30 0
-37 -28 0
-37 -29 0
-37 -30 0
-38 -29 0
-38 -30 0
-39 -30 0
-36 -32 0
-36 -33 0
-36 -34 0
-36 -35 0
-37 -33 0
-37 -34 0
-37 -35 0
-38 -34 0
-38 -35 0
-39 -35 0
-36 -42 0
-36 -43 0
-36 -44 0
-36 -45 0
-37 -43 0
-37 -44 0
-37 -45 0
-38 -44 0
-38 -45 0
-39 -45 0
-36 -52 0
-36 -53 0
-36 -54 0
-36 -55 0
-37 -53 0
-37 -54 0
-37 -55 0
-38 -54 0
-38 -55 0
-39 -55 0
-41 -2 0
-41 -3 0
-41 -4 0
-41 -5 0
-42 -3 0
-42 -4 0
-42 -5 0
-43 -4 0
-43 -5 0
-44 -5 0
-41 -37 0
-41 -38 0
-41 -39 0
-41 -40 0
-42 -38 0
-42 -39 0
-42 -40 0
-43 -39 0
-43 -40 0
-44 -40 0
-41 -47 0
-41 -48 0
-41 -49 0
-41 -50 0
-42 -48 0
-42 -49 0
-42 -50 0
-43 -49 0
-43 -50 0
-44 -50 0
-46 -7 0
-46 -8 0
-46 -9 0
-46 -10 0
-47 -8 0
-47 -9 0
-47 -10 0
-48 -9 0
-48 -10 0
-49 -10 0
-46 -27 0
-46 -28 0
-46 -29 0
-46 -30 0
-47 -28 0
-47 -29 0
-47 -30 0
-48 -29 0
-48 -30 0
-49 -30 0
-46 -32 0
-46 -33 0
-46 -34 0
-46 -35 0
-47 -33 0
-47 -34 0
-47 -35 0
-48 -34 0
-48 -35 0
-49 -35 0
-46 -42 0
-46 -43 0
-46 -44 0
-46 -45 0
-47 -43 0
-47 -44 0
-47 -45 0
-48 -44 0
-48 -45 0
-49 -45 0
-46 -62 0
-46 -63 0
-46 -64 0
-46 -65 0
-47 -63 0
-47 -64 0
-47 -65 0
-48 -64 0
-48 -65 0
-49 -65 0
-51 -17 0
-51 -18 0
-51 -19 0
-51 -20 0
-52 -18 0
-52 -19 0
-52 -20 0
-53 -19 0
-53 -20 0
-54 -20 0
-51 -22 0
-51 -23 0
-51 -24 0
-51 -25 0
-52 -23 0
-52 -24 0
-52 -25 0
-53 -24 0
-53 -25 0
-54 -25 0
-51 -32 0
-51 -33 0
-51 -34 0
-51 -35 0
-52 -33 0
-52 -34 0
-52 -35 0
-53 -34 0
-53 -35 0
-54 -35 0
-51 -37 0
-51 -38 0
-51 -39 0
-51 -40 0
-52 -38 0
-52 -39 0
-52 -40 0
-53 -39 0
-53 -40 0
-54 -40 0
-51 -62 0
-51 -63 0
-51 -64 0
-51 -65 0
-52 -63 0
-52 -64 0
-52 -65 0
-53 -64 0
-53 -65 0
-54 -65 0
-56 -12 0
-56 -13 0
-56 -14 0
-56 -15 0
-57 -13 0
-57 -14 0
-57 -15 0
-58 -14 0
-58 -15 0
-59 -15 0
-56 -27 0
-56 -28 0
-56 -29 0
-56 -30 0
-57 -28 0
-57 -29 0
-57 -30 0
-58 -29 0
-58 -30 0
-59 -30 0
-56 -32 0
-56 -33 0
-56 -34 0
-56 -35 0
-57 -33 0
-57 -34 0
-57 -35 0
-58 -34 0
-58 -35 0
-59 -35 0
-56 -62 0
-56 -63 0
-56 -64 0
-56 -65 0
-57 -63 0
-57 -64 0
-57 -65 0
-58 -64 0
-58 -65 0
-59 -65 0
-61 -17 0
-61 -18 0
-61 -19 0
-61 -20 0
-62 -18 0
-62 -19 0
-62 -20 0
-63 -19 0
-63 -20 0
-64 -20 0
-61 -47 0
-61 -48 0
-61 -49 0
-61 -50 0
-62 -48 0
-62 -49 0
-62 -50 0
-63 -49 0
-63 -50 0
-64 -50 0
-61 -52 0
-61 -53 0
-61 -54 0
-61 -55 0
-62 -53 0
-62 -54 0
-62 -55 0
-63 -54 0
-63 -55 0
-64 -55 0
-61 -57 0
-61 -58 0
-61 -59 0
-61 -60 0
-62 -58 0
-62 -59 0
-62 -60 0
-63 -59 0
-63 -60 0
-64 -60 0
-1 -2 0
-6 -7 0
-11 -12 0
-16 -17 0
-21 -22 0
-26 -27 0
-31 -32 0
-36 -37 0
-41 -42 0
-46 -47 0
-51 -52 0
-56 -57 0
-61 -62 0
-1 -3 0
-6 -8 0
-11 -13 0
-16 -18 0
-21 -23 0
-26 -28 0
-31 -33 0
-36 -38 0
-41 -43 0
-46 -48 0
-51 -53 0
-56 -58 0
-61 -63 0
-1 -4 0
-6 -9 0
-11 -14 0
-16 -19 0
-21 -24 0
-26 -29 0
-31 -34 0
-36 -39 0
-41 -44 0
-46 -49 0
-51 -54 0
-56 -59 0
-61 -64 0
-1 -5 0
-6 -10 0
-11 -15 0
-16 -20 0
-21 -25 0
-26 -30 0
-31 -35 0
-36 -40 0
-41 -45 0
-46 -50 0
-51 -55 0
-56 -60 0
-61 -65 0
-2 -3 0
-7 -8 0
-12 -13 0
-17 -18 0
-22 -23 0
-27 -28 0
-32 -33 0
-37 -38 0
-42 -43 0
-47 -48 0
-52 -53 0
-57 -58 0
-62 -63 0
-2 -4 0
-7 -9 0
-12 -14 0
-17 -19 0
-22 -24 0
-27 -29 0
-32 -34 0
-37 -39 0
-42 -44 0
-47 -49 0
-52 -54 0
-57 -59 0
-62 -64 0
-2 -5 0
-7 -10 0
-12 -15 0
-17 -20 0
-22 -25 0
-27 -30 0
-32 -35 0
-37 -40 0
-42 -45 0
-47 -50 0
-52 -55 0
-57 -60 0
-62 -65 0
-3 -4 0
-8 -9 0
-13 -14 0
-18 -19 0
-23 -24 0
-28 -29 0
-33 -34 0
-38 -39 0
-43 -44 0
-48 -49 0
-53 -54 0
-58 -59 0
-63 -64 0
-3 -5 0
-8 -10 0
-13 -15 0
-18 -20 0
-23 -25 0
-28 -30 0
-33 -35 0
-38 -40 0
-43 -45 0
-48 -50 0
-53 -55 0
-58 -60 0
-63 -65 0
-4 -5 0
-9 -10 0
-14 -15 0
-19 -20 0
-24 -25 0
-29 -30 0
-34 -35 0
-39 -40 0
-44 -45 0
-49 -50 0
-54 -55 0
-59 -60 0
-64 -65 0
-1 -6 0
-1 -11 0
-1 -16 0
-1 -21 0
-1 -26 0
-1 -31 0
-1 -36 0
-1 -41 0
-1 -46 0
-1 -51 0
-1 -56 0
-1 -61 0
-6 -11 0
-6 -16 0
-6 -21 0
-6 -26 0
-6 -31 0
-6 -36 0
-6 -41 0
-6 -46 0
-6 -51 0
-6 -56 0
-6 -61 0
-11 -16 0
-11 -21 0
-11 -26 0
-11 -31 0
-11 -36 0
-11 -41 0
-11 -46 0
-11 -51 0
-11 -56 0
-11 -61 0
-16 -21 0
-16 -26 0
-16 -31 0
-16 -36 0
-16 -41 0
-16 -46 0
-16 -51 0
-16 -56 0
-16 -61 0
-21 -26 0
-21 -31 0
-21 -36 0
-21 -41 0
-21 -46 0
-21 -51 0
-21 -56 0
-21 -61 0
-26 -31 0
-26 -36 0
-26 -41 0
-26 -46 0
-26 -51 0
-26 -56 0
-26 -61 0
-31 -36 0
-31 -41 0
-31 -46 0
-31 -51 0
-31 -56 0
-31 -61 0
-36 -41 0
-36 -46 0
-36 -51 0
-36 -56 0
-36 -61 0
-41 -46 0
-41 -51 0
-41 -56 0
-41 -61 0
-46 -51 0
-46 -56 0
-46 -61 0
-51 -56 0
-51 -61 0
-56 -61 0
-2 -7 0
-2 -12 0
-2 -17 0
-2 -22 0
-2 -27 0
-2 -32 0
-2 -37 0
-2 -42 0
-2 -47 0
-2 -52 0
-2 -57 0
-2 -62 0
-7 -12 0
-7 -17 0
-7 -22 0
-7 -27 0
-7 -32 0
-7 -37 0
-7 -42 0
-7 -47 0
-7 -52 0
-7 -57 0
-7 -62 0
-12 -17 0
-12 -22 0
-12 -27 0
-12 -32 0
-12 -37 0
-12 -42 0
-12 -47 0
-12 -52 0
-12 -57 0
-12 -62 0
-17 -22 0
-17 -27 0
-17 -32 0
-17 -37 0
-17 -42 0
-17 -47 0
-17 -52 0
-17 -57 0
-17 -62 0
-22 -27 0
-22 -32 0
-22 -37 0
-22 -42 0
-22 -47 0
-22 -52 0
-22 -57 0
-22 -62 0
-27 -32 0
-27 -37 0
-27 -42 0
-27 -47 0
-27 -52 0
-27 -57 0
-27 -62 0
-32 -37 0
-32 -42 0
-32 -47 0
-32 -52 0
-32 -57 0
-32 -62 0
-37 -42 0
-37 -47 0
-37 -52 0
-37 -57 0
-37 -62 0
-42 -47 0
-42 -52 0
-42 -57 0
-42 -62 0
-47 -52 0
-47 -57 0
-47 -62 0
-52 -57 0
-52 -62 0
-57 -62 0
-3 -8 0
-3 -13 0
-3 -18 0
-3 -23 0
-3 -28 0
-3 -33 0
-3 -38 0
-3 -43 0
-3 -48 0
-3 -53 0
-3 -58 0
-3 -63 0
-8 -13 0
-8 -18 0
-8 -23 0
-8 -28 0
-8 -33 0
-8 -38 0
-8 -43 0
-8 -48 0
-8 -53 0
-8 -58 0
-8 -63 0
-13 -18 0
-13 -23 0
-13 -28 0
-13 -33 0
-13 -38 0
-13 -43 0
-13 -48 0
-13 -53 0
-13 -58 0
-13 -63 0
-18 -23 0
-18 -28 0
-18 -33 0
-18 -38 0
-18 -43 0
-18 -48 0
-18 -53 0
-18 -58 0
-18 -63 0
-23 -28 0
-23 -33 0
-23 -38 0
-23 -43 0
-23 -48 0
-23 -53 0
-23 -58 0
-23 -63 0
-28 -33 0
-28 -38 0
-28 -43 0
-28 -48 0
-28 -53 0
-28 -58 0
-28 -63 0
-33 -38 0
-33 -43 0
-33 -48 0
-33 -53 0
-33 -58 0
-33 -63 0
-38 -43 0
-38 -48 0
-38 -53 0
-38 -58 0
-38 -63 0
-43 -48 0
-43 -53 0
-43 -58 0
-43 -63 0
-48 -53 0
-48 -58 0
-48 -63 0
-53 -58 0
-53 -63 0
-58 -63 0
-4 -9 0
-4 -14 0
-4 -19 0
-4 -24 0
-4 -29 0
-4 -34 0
-4 -39 0
-4 -44 0
-4 -49 0
-4 -54 0
-4 -59 0
-4 -64 0
-9 -14 0
-9 -19 0
-9 -24 0
-9 -29 0
-9 -34 0
-9 -39 0
-9 -44 0
-9 -49 0
-9 -54 0
-9 -59 0
-9 -64 0
-14 -19 0
-14 -24 0
-14 -29 0
-14 -34 0
-14 -39 0
-14 -44 0
-14 -49 0
-14 -54 0
-14 -59 0
-14 -64 0
-19 -24 0
-19 -29 0
-19 -34 0
-19 -39 0
-19 -44 0
-19 -49 0
-19 -54 0
-19 -59 0
-19 -64 0
-24 -29 0
-24 -34 0
-24 -39 0
-24 -44 0
-24 -49 0
-24 -54 0
-24 -59 0
-24 -64 0
-29 -34 0
-29 -39 0
-29 -44 0
-29 -49 0
-29 -54 0
-29 -59 0
-29 -64 0
-34 -39 0
-34 -44 0
-34 -49 0
-34 -54 0
-34 -59 0
-34 -64 0
-39 -44 0
-39 -49 0
-39 -54 0
-39 -59 0
-39 -64 0
-44 -49 0
-44 -54 0
-44 -59 0
-44 -64 0
-49 -54 0
-49 -59 0
-49 -64 0
-54 -59 0
-54 -64 0
-59 -64 0
-5 -10 0
-5 -15 0
-5 -20 0
-5 -25 0
-5 -30 0
-5 -35 0
-5 -40 0
-5 -45 0
-5 -50 0
-5 -55 0
-5 -60 0
-5 -65 0
-10 -15 0
-10 -20 0
-10 -25 0
-10 -30 0
-10 -35 0
-10 -40 0
-10 -45 0
-10 -50 0
-10 -55 0
-10 -60 0
-10 -65 0
-15 -20 0
-15 -25 0
-15 -30 0
-15 -35 0
-15 -40 0
-15 -45 0
-15 -50 0
-15 -55 0
-15 -60 0
-15 -65 0
-20 -25 0
-20 -30 0
-20 -35 0
-20 -40 0
-20 -45 0
-20 -50 0
-20 -55 0
-20 -60 0
-20 -65 0
-25 -30 0
-25 -35 0
-25 -40 0
-25 -45 0
-25 -50 0
-25 -55 0
-25 -60 0
-25 -65 0
-30 -35 0
-30 -40 0
-30 -45 0
-30 -50 0
-30 -55 0
-30 -60 0
-30 -65 0
-35 -40 0
-35 -45 0
-35 -50 0
-35 -55 0
-35 -60 0
-35 -65 0
-40 -45 0
-40 -50 0
-40 -55 0
-40 -60 0
-40 -65 0
-45 -50 0
-45 -55 0
-45 -60 0
-45 -65 0
-50 -55 0
-50 -60 0
-50 -65 0
-55 -60 0
-55 -65 0
-60 -65 0
